New bulk Sr2 Ga18 Cr6 O38 group12
1.0
5.9070000648000001 0.0000000000000000 0.0000000000000000
-2.9535000324000000 5.1156121163000003 0.0000000000000000
0.0000000000000000 0.0000000000000000 23.0665626525999983
Sr Ga Cr O
2 18 6 38
Direct
0.3333333432506868 0.6666666865013735 0.7499999999804914
0.6666666865040760 0.3333333433484268 0.2499999999934971
0.6639750005050360 0.8319875002716887 0.6082580089764060
0.6639750005050360 0.8319875002716887 0.8917419910279294
0.8319875001355543 0.6639750004065413 0.1082580014893779
0.3360249996649564 0.1680124998651474 0.1082580014893779
0.8319875002340490 0.1680124998651474 0.3917419910409353
0.8319875002340490 0.1680124998651474 0.1082580014893779
0.0000000000000000 0.0000000000000000 0.0000000000000000
0.3360249996649564 0.1680124998651474 0.3917419910409353
0.8319875001355543 0.6639750004065413 0.3917419910409353
0.0000000000000000 0.0000000000000000 0.2499999999934971
0.0000000000000000 0.0000000000000000 0.4999999999869943
0.0000000000000000 0.0000000000000000 0.7499999999804914
0.3333333432506868 0.6666666865013735 0.3097150027767462
0.6666666865040760 0.3333333433484268 0.8097149729803692
0.6666666865040760 0.3333333433484268 0.5280860066346721
0.6666666865040760 0.3333333433484268 0.6902850270239663
0.6666666865040760 0.3333333433484268 0.9719139933696634
0.3333333432506868 0.6666666865013735 0.1902849972102480
0.1680124997666527 0.8319875002716887 0.8917419910279294
0.1680124997666527 0.8319875002716887 0.6082580089764060
0.1680124997674073 0.3360249995348147 0.6082580089764060
0.1680124997674073 0.3360249995348147 0.8917419910279294
0.3333333432506868 0.6666666865013735 0.4719139933393164
0.3333333432506868 0.6666666865013735 0.0280859991909968
0.5036154984769893 0.4963845014575934 0.3509559929202332
0.8172190189244700 0.1827809960455504 0.7499999999804914
0.3101199864335938 0.1550599932063891 0.5524299740674055
0.4963845014575934 0.9927690029151869 0.6490439772703840
0.5036154985571430 0.0072309999583695 0.3509559929202332
0.0000000000000000 0.0000000000000000 0.6512449979757502
0.0000000000000000 0.0000000000000000 0.8487550020285853
0.6898800134693678 0.8449400067349668 0.0524300001354420
0.9927690028451716 0.4963845014575934 0.1490440070667610
0.1827809959532622 0.8172190189477677 0.2499999999934971
0.1550599932655990 0.8449400067349668 0.4475699961232117
0.0000000000000000 0.0000000000000000 0.3487550020415911
0.8449400066965725 0.6898800135285776 0.5524299740674055
0.1550599933041291 0.3101199866082583 0.0524300001354420
0.6666666865040760 0.3333333433484268 0.0546800010038701
0.8172190188938271 0.6344379783327709 0.7499999999804914
0.6666666865040760 0.3333333433484268 0.4453200101681457
0.0072309997664408 0.5036154984837625 0.8509560227339515
0.3333333432506868 0.6666666865013735 0.5546799898058428
0.0000000000000000 0.0000000000000000 0.1512449979887560
0.4963845014259724 0.5036154984837625 0.8509560227339515
0.1550599933041291 0.3101199866082583 0.4475699961232117
0.6344379783017686 0.8172190189477677 0.2499999999934971
0.1550599932655990 0.8449400067349668 0.0524300001354420
0.4963845014575934 0.9927690029151869 0.8509560227339515
0.6898800134693678 0.8449400067349668 0.4475699961232117
0.5036154985571430 0.0072309999583695 0.1490440070667610
0.4963845014259724 0.5036154984837625 0.6490439772703840
0.8449400066373627 0.1550599932063891 0.9475700259369301
0.5036154984769893 0.4963845014575934 0.1490440070667610
0.3333333432506868 0.6666666865013735 0.9453200101984928
0.3101199864335938 0.1550599932063891 0.9475700259369301
0.9927690028451716 0.4963845014575934 0.3509559929202332
0.8449400066965725 0.6898800135285776 0.9475700259369301
0.3655619920525174 0.1827809960455504 0.7499999999804914
0.8449400066373627 0.1550599932063891 0.5524299740674055
0.1827809959478104 0.3655619918956207 0.2499999999934971
0.0072309997664408 0.5036154984837625 0.6490439772703840
