Ba2 Fe24 O38
1.0
        5.9070000648         0.0000000000         0.0000000000
       -2.9535000324         5.1156121163         0.0000000000
        0.0000000000         0.0000000000        23.0665626526
   Sr   Ga    O
    2   24   38
Cartesian
     0.000000000         3.410408179        17.299921989
     2.953500120         1.705204090         5.766640663
     1.464825262         4.256125337        14.030421473 12k_layer6_3
     1.464825262         4.256125337        20.569422506 12k_layer2_3
     2.953500032         3.396638557         2.497139974 12k_layer14_1
    -1.464825262         4.256125337        20.569422506 12k_layer2_2
     1.488674771         0.859486780         2.497139974 12k_layer14_3
     4.418325294         0.859486780         9.036141180 12k_layer10_2
    -1.464825262         4.256125337        14.030421473 12k_layer6_2
     0.000000000         1.718973559        14.030421473 12k_layer6_1
     4.418325294         0.859486780         2.497139974 12k_layer14_2
     0.000000000         0.000000000         0.000000000 2a_layer16
     1.488674771         0.859486780         9.036141180 12k_layer10_3
     2.953500032         3.396638557         9.036141180 12k_layer10_1
     0.000000000         1.718973559        20.569422506 12k_layer2_1
     0.000000000         0.000000000         5.766640663 2b_layer12
     0.000000000         0.000000000        11.533281326 2a_layer8
     0.000000000         0.000000000        17.299921989 2b_layer4
     0.000000000         3.410408179        10.885433694 4f1_layer9
     0.000000000         3.410408179         7.144060516 4f2_layer11
     2.953500120         1.705204090        18.677341155 4f2_layer3
     2.953500120         1.705204090        12.181128958 4f1_layer7
     2.953500120         1.705204090        15.922502824 4f2_layer5
     2.953500120         1.705204090        22.418715021 4f1_layer1
     0.000000000         3.410408179         4.389220810 4f2_layer13
     0.000000000         3.410408179         0.647847460 4f1_layer15
     1.508785141         2.539310570         8.095348399
     4.287469120         0.935036678        17.299921989
     1.373909085         0.793226780        12.742660608
     0.000000000         5.078621140        14.971213566
     2.953500024         0.036990991         8.095348399
     0.000000000         0.000000000        15.021983548
     0.000000000         0.000000000        19.577860431
     1.579590947         4.322385336         1.209379883
     4.398214923         2.539310570         3.437932927
    -1.333969044         4.180575515         5.766640663
    -1.579590947         4.322385336        10.323901357
     0.000000000         0.000000000         8.044579105
     2.953500032         3.529158556        12.742660608
     0.000000000         1.586453561         1.209379883
     2.953500120         1.705204090         1.261279669
     2.953500208         3.245538609        17.299921989
     2.953500120         1.705204090        10.272001915
    -1.444714875         2.576301546        19.628630413
     0.000000000         3.410408179        12.794560737
     0.000000000         0.000000000         3.488702222
     1.444714891         2.576301546        19.628630413
     0.000000000         1.586453561        10.323901357
     1.333968780         4.180575515         5.766640663
    -1.579590947         4.322385336         1.209379883
     0.000000000         5.078621140        19.628630413
     1.579590947         4.322385336        10.323901357
     2.953500024         0.036990991         3.437932927
     1.444714891         2.576301546        14.971213566
     4.533090979         0.793226780        21.857183371
     1.508785141         2.539310570         3.437932927
     0.000000000         3.410408179        21.805283242
     1.373909085         0.793226780        21.857183371
     4.398214923         2.539310570         8.095348399
     2.953500032         3.529158556        21.857183371
     1.619531033         0.935036678        17.299921989
     4.533090979         0.793226780        12.742660608
     0.000000000         1.870073355         5.766640663
    -1.444714875         2.576301546        14.971213566